
Gurobi 9.5.0 (linux64) logging started Sat Nov  4 17:04:43 2023

Set parameter LogFile to value "/lustre1/scratch/348/vsc34888/JointResearch/05.Models/06.Benchmarking/D.Representative_days_based_on_RES_and_Demand/RTS24_ByStages_nc70/openStarNet_RTS24_ByStages_nc70.log"
Set parameter Method to value 2
Set parameter MIPFocus to value 1
Set parameter Presolve to value 2
Set parameter RINS to value 100
Set parameter MIPGap to value 0.01
Set parameter Threads to value 36
Set parameter TimeLimit to value 604800
Set parameter IterationLimit to value 760000000
Gurobi Optimizer version 9.5.0 build v9.5.0rc5 (linux64)
Thread count: 36 physical cores, 36 logical processors, using up to 36 threads
Optimize a model with 32695 rows, 18431 columns and 86078 nonzeros
Model fingerprint: 0x51e94f56
Variable types: 18392 continuous, 39 integer (39 binary)
Coefficient statistics:
  Matrix range     [6e-03, 2e+03]
  Objective range  [1e+00, 1e+00]
  Bounds range     [4e-04, 3e+00]
  RHS range        [4e-04, 3e+00]
Presolve removed 16735 rows and 8152 columns
Presolve time: 0.15s
Presolved: 15960 rows, 10279 columns, 55530 nonzeros
Variable types: 10240 continuous, 39 integer (39 binary)
Found heuristic solution: objective 61.0234486
Root relaxation presolved: 15960 rows, 10279 columns, 55530 nonzeros

Root barrier log...

Ordering time: 0.01s

Barrier statistics:
 Dense cols : 39
 AA' NZ     : 1.181e+05
 Factor NZ  : 3.959e+05 (roughly 14 MB of memory)
 Factor Ops : 1.247e+07 (less than 1 second per iteration)
 Threads    : 36

                  Objective                Residual
Iter       Primal          Dual         Primal    Dual     Compl     Time
   0   5.82968636e+05 -7.12027524e+07  4.24e+00 2.63e+02  6.12e+03     0s
   1   5.84992316e+04 -1.84869447e+07  3.49e-01 3.39e-09  7.53e+02     0s
   2   1.66118447e+04 -2.31868141e+06  7.92e-03 1.64e-09  7.30e+01     0s
   3   1.01638129e+04 -1.95781262e+05  1.41e-12 1.18e-10  6.34e+00     0s
   4   1.90340453e+03 -1.94358127e+04  9.75e-13 8.16e-12  6.57e-01     0s
   5   4.80405873e+02 -6.62567346e+03  4.60e-13 2.52e-12  2.19e-01     0s
   6   2.81660465e+02 -1.84234226e+03  2.58e-13 1.36e-12  6.54e-02     0s
   7   1.81258598e+02 -6.87052836e+02  2.37e-13 9.09e-13  2.68e-02     0s
   8   1.12989427e+02 -1.75579520e+02  2.94e-13 9.09e-13  8.89e-03     0s
   9   8.56376374e+01 -3.75658630e+01  2.31e-13 9.09e-13  3.80e-03     0s
  10   5.54525913e+01  1.49620585e+01  2.29e-13 9.09e-13  1.25e-03     0s
  11   5.08523470e+01  3.18106348e+01  3.78e-13 9.09e-13  5.87e-04     1s
  12   4.84835720e+01  3.64630053e+01  1.11e-12 9.09e-13  3.70e-04     1s
  13   4.70413667e+01  4.13120487e+01  1.80e-12 9.09e-13  1.77e-04     1s
  14   4.62386994e+01  4.27306578e+01  2.79e-12 4.55e-13  1.08e-04     1s
  15   4.55535121e+01  4.31285535e+01  6.36e-12 9.09e-13  7.47e-05     1s
  16   4.52576966e+01  4.40261965e+01  4.20e-12 9.09e-13  3.79e-05     1s
  17   4.51230757e+01  4.45085960e+01  4.04e-12 9.09e-13  1.89e-05     1s
  18   4.49683780e+01  4.46290362e+01  1.62e-11 9.09e-13  1.05e-05     1s
  19   4.49070393e+01  4.47665072e+01  1.52e-11 9.09e-13  4.33e-06     1s
  20   4.48768798e+01  4.48539750e+01  2.74e-11 9.09e-13  7.06e-07     1s
  21   4.48693501e+01  4.48692064e+01  4.44e-11 1.82e-12  4.43e-09     1s
  22   4.48692946e+01  4.48692944e+01  6.81e-11 9.09e-13  4.50e-12     1s

Barrier solved model in 22 iterations and 0.63 seconds (0.51 work units)
Optimal objective 4.48692946e+01


Root relaxation: objective 4.486929e+01, 1108 iterations, 0.42 seconds (0.24 work units)

    Nodes    |    Current Node    |     Objective Bounds      |     Work
 Expl Unexpl |  Obj  Depth IntInf | Incumbent    BestBd   Gap | It/Node Time

     0     0   44.86929    0    7   61.02345   44.86929  26.5%     -    0s
H    0     0                      55.7768017   44.86929  19.6%     -    0s
     0     0   45.66155    0    8   55.77680   45.66155  18.1%     -    1s
     0     0   45.69543    0    8   55.77680   45.69543  18.1%     -    1s
     0     0   46.82733    0    9   55.77680   46.82733  16.0%     -    1s
     0     0   47.02322    0    9   55.77680   47.02322  15.7%     -    2s
     0     0   47.02322    0    9   55.77680   47.02322  15.7%     -    2s
     0     0   47.02322    0    9   55.77680   47.02322  15.7%     -    2s
     0     0   47.02322    0    9   55.77680   47.02322  15.7%     -    2s
     0     0   48.15552    0    9   55.77680   48.15552  13.7%     -    2s
H    0     0                      54.7668674   48.15552  12.1%     -    2s
     0     0   48.15602    0    9   54.76687   48.15602  12.1%     -    2s
     0     0   48.39587    0   12   54.76687   48.39587  11.6%     -    2s
     0     0   48.39587    0   12   54.76687   48.39587  11.6%     -    2s
     0     0   48.39587    0   12   54.76687   48.39587  11.6%     -    2s
     0     0   48.51958    0   12   54.76687   48.51958  11.4%     -    2s
     0     0   48.51958    0   11   54.76687   48.51958  11.4%     -    3s
     0     0   48.70866    0   11   54.76687   48.70866  11.1%     -    3s
     0     0   48.71486    0   10   54.76687   48.71486  11.1%     -    3s
     0     0   48.78080    0   10   54.76687   48.78080  10.9%     -    3s
     0     0   48.78080    0   10   54.76687   48.78080  10.9%     -    3s
     0     0   48.78080    0   10   54.76687   48.78080  10.9%     -    3s
     0     0   48.78080    0   10   54.76687   48.78080  10.9%     -    3s
H    0     0                      53.8810193   48.78080  9.47%     -    4s
     0     0   48.79317    0   10   53.88102   48.79317  9.44%     -    4s
H    0     0                      53.5416483   48.79317  8.87%     -    9s
     0     2   48.79317    0   10   53.54165   48.79317  8.87%     -   10s
   126    33   52.93138    9    4   53.54165   51.98282  2.91%   227   21s
   162    24   53.05981   10    3   53.54165   52.56749  1.82%   193   26s

Cutting planes:
  Gomory: 3
  Implied bound: 7
  MIR: 279
  Relax-and-lift: 1

Explored 224 nodes (40789 simplex iterations) in 26.39 seconds (34.06 work units)
Thread count was 36 (of 36 available processors)

Solution count 5: 53.5416 53.881 54.7669 ... 61.0234

Optimal solution found (tolerance 1.00e-02)
Best objective 5.354164828025e+01, best bound 5.325129592126e+01, gap 0.5423%

Gurobi 9.5.0 (linux64) logging started Sat Nov  4 17:05:13 2023

Set parameter LogFile to value "/lustre1/scratch/348/vsc34888/JointResearch/05.Models/06.Benchmarking/D.Representative_days_based_on_RES_and_Demand/RTS24_ByStages_nc70/openStarNet_RTS24_ByStages_nc70.log"
Set parameter Method to value 2
Set parameter MIPFocus to value 1
Set parameter Presolve to value 2
Set parameter RINS to value 100
Set parameter MIPGap to value 0.01
Set parameter Threads to value 36
Set parameter TimeLimit to value 604800
Set parameter IterationLimit to value 760000000
No parameters matching 'relax_integrality' found
Gurobi Optimizer version 9.5.0 build v9.5.0rc5 (linux64)
Thread count: 36 physical cores, 36 logical processors, using up to 36 threads
Optimize a model with 32695 rows, 18392 columns and 75119 nonzeros
Model fingerprint: 0xbc2c1308
Coefficient statistics:
  Matrix range     [6e-03, 2e+03]
  Objective range  [1e+00, 1e+00]
  Bounds range     [4e-04, 3e+00]
  RHS range        [4e-04, 1e+01]
Presolve removed 26473 rows and 9148 columns
Presolve time: 0.03s
Presolved: 6222 rows, 9384 columns, 22458 nonzeros

Ordering time: 0.00s

Barrier statistics:
 AA' NZ     : 1.480e+04
 Factor NZ  : 6.364e+04 (roughly 6 MB of memory)
 Factor Ops : 9.119e+05 (less than 1 second per iteration)
 Threads    : 1

                  Objective                Residual
Iter       Primal          Dual         Primal    Dual     Compl     Time
   0   6.50288778e+05 -1.76930867e+08  4.75e+00 5.27e+02  1.99e+04     0s
   1   7.84120060e+04 -2.43233408e+07  4.34e-01 1.56e-11  1.98e+03     0s
   2   4.11392196e+04 -3.40587714e+06  1.16e-01 1.14e-11  2.59e+02     0s
   3   2.40572456e+04 -4.87325209e+05  3.11e-03 1.09e-11  3.22e+01     0s
   4   1.21624626e+04 -7.94317202e+04  6.32e-05 6.13e-12  5.73e+00     0s
   5   4.50956777e+03 -1.89862129e+04  1.55e-05 1.39e-11  1.47e+00     0s
   6   8.98603444e+02 -5.03146250e+03  2.14e-06 3.64e-12  3.71e-01     0s
   7   2.71829457e+02 -1.60571453e+03  2.55e-07 7.28e-12  1.18e-01     0s
   8   1.49538885e+02 -5.11051772e+02  5.09e-08 3.64e-12  4.13e-02     0s
   9   9.69437275e+01 -1.52917793e+02  1.07e-08 7.28e-12  1.56e-02     0s
  10   6.68897161e+01  6.81110363e+00  1.27e-09 3.64e-12  3.76e-03     0s
  11   5.75315229e+01  3.72908116e+01  2.61e-10 1.82e-12  1.27e-03     0s
  12   5.53120154e+01  4.56456497e+01  1.07e-10 1.82e-12  6.05e-04     0s
  13   5.42789731e+01  5.11079478e+01  4.14e-11 3.64e-12  1.98e-04     0s
  14   5.38512829e+01  5.27124025e+01  1.64e-11 3.64e-12  7.13e-05     0s
  15   5.36351037e+01  5.33210440e+01  4.71e-12 1.82e-12  1.97e-05     0s
  16   5.35596477e+01  5.35302079e+01  6.07e-12 3.64e-12  1.84e-06     0s
  17   5.35423841e+01  5.35380322e+01  1.45e-09 1.82e-12  2.72e-07     0s
  18   5.35416574e+01  5.35416254e+01  1.23e-10 3.64e-12  2.01e-09     0s
  19   5.35416483e+01  5.35416483e+01  1.11e-10 3.64e-12  2.21e-12     0s
  20   5.35416483e+01  5.35416483e+01  9.78e-10 1.82e-12  2.21e-15     0s

Barrier solved model in 20 iterations and 0.11 seconds (0.09 work units)
Optimal objective 5.35416483e+01

Crossover log...

     833 DPushes remaining with DInf 0.0000000e+00                 0s
       0 DPushes remaining with DInf 0.0000000e+00                 0s

     320 PPushes remaining with PInf 0.0000000e+00                 0s
       0 PPushes remaining with PInf 0.0000000e+00                 0s

  Push phase complete: Pinf 0.0000000e+00, Dinf 1.1949753e-12      0s

Iteration    Objective       Primal Inf.    Dual Inf.      Time
     352    5.3541648e+01   0.000000e+00   0.000000e+00      0s

Use crossover to convert LP symmetric solution to basic solution...
Crossover log...

       0 DPushes remaining with DInf 0.0000000e+00                 0s

     223 PPushes remaining with PInf 0.0000000e+00                 0s
       0 PPushes remaining with PInf 0.0000000e+00                 0s

  Push phase complete: Pinf 0.0000000e+00, Dinf 8.7944547e-13      0s

Iteration    Objective       Primal Inf.    Dual Inf.      Time
     608    5.3541648e+01   0.000000e+00   0.000000e+00      0s

Solved in 608 iterations and 0.16 seconds (0.12 work units)
Optimal objective  5.354164828e+01
